n_res = 7;
rcap = [12, 8, 11, 10, 12, 102, 109];
rtype = [1, 1, 1, 1, 1, 2, 2];
n_tasks = 16;
modes = [ {1, 2, 3}, {4, 5, 6}, {7, 8, 9}, {10, 11, 12}, {13, 14, 15}, {16, 17, 18}, {19, 20, 21}, {22, 23, 24}, {25, 26, 27}, {28, 29, 30}, {31, 32, 33}, {34, 35, 36}, {37, 38, 39}, {40, 41, 42}, {43, 44, 45}, {46, 47, 48} ];
succ = [ {7, 13}, {10, 12, 14}, {4, 8, 12}, {5, 6, 9}, {16}, {7, 13}, {10, 11, 14}, {10, 11, 16}, {11, 14}, {15}, {15}, {13}, {15, 16}, {}, {}, {} ];
n_opt = 48;
dur = [3, 6, 9, 2, 4, 7, 3, 4, 9, 2, 4, 10, 5, 9, 9, 6, 6, 10, 1, 7, 9, 4, 4, 9, 1, 1, 1, 4, 5, 8, 4, 8, 9, 1, 3, 3, 5, 9, 10, 2, 6, 8, 1, 4, 6, 3, 6, 7];
rreq = [|  9,  9,  0,  8,  3,  0,  0,  0,  1,  6,  6,  6,  0,  0,  6,  8,  7,  4,  0,  7,  0,  9,  0,  0,  0,  6,  8,  7,  3,  0,  7,  6,  0,  8,  0,  8,  8,  8,  0,  0,  2,  2,  0,  8,  8,  9,  0,  0
        |  0,  0,  1,  4,  3,  3,  0,  0,  0,  9,  9,  0,  2,  0,  0,  0,  0,  0,  8,  0,  5,  6,  0,  7,  0,  0,  3,  9,  6,  0,  0,  0,  0,  0,  6,  0,  0,  0,  2,  8,  0,  4, 10,  0,  3,  0,  7,  0
        |  0,  4,  0,  0,  2,  0,  7,  0,  6,  0,  0,  8,  9,  9,  8,  8,  0,  0,  6,  4,  0,  5,  0,  0,  0,  4,  0,  6,  0,  6,  5,  0,  0,  0,  4,  3,  0,  7,  6,  3,  0,  0,  0,  0,  8,  0,  0,  0
        |  0,  8,  8,  7,  0,  4,  7,  0,  0,  0,  7,  0,  0,  4,  3,  4,  7,  0,  4,  2,  2,  0,  4,  0,  0,  9,  9,  6,  0,  0,  0,  6,  1, 10,  0,  1,  7,  0,  0, 10,  9,  0,  0,  0,  7,  0,  6,  3
        |  6,  4,  0,  0,  1,  0,  0,  5,  0,  0,  0,  4,  0,  3,  0,  0,  8,  7,  3,  0,  0,  8,  9,  8,  7,  0,  0,  6,  0,  0,  0,  6,  6,  0,  5,  0,  4,  0,  0,  3,  1,  0,  5,  5,  0,  0,  0,  0
        |  9,  9,  7,  5,  5,  5,  3,  3,  2,  6,  6,  6, 10,  6,  7,  6,  6,  5,  6,  5,  2,  9,  9,  4,  2,  3,  2,  7,  3,  2,  3,  3,  2,  8,  8,  8,  5,  5,  4,  6,  5,  1, 10,  8,  4,  6,  5,  4
        | 10,  9,  9, 10,  7,  5,  4,  3,  1,  6,  4,  3,  2,  1,  2,  8,  7,  6,  5,  5,  5,  8,  7,  5,  8,  7,  9,  8,  6,  2,  9,  8,  8,  4,  2,  4,  8,  6,  6,  8,  7,  4,  2,  2,  2,  8,  7,  7 |];
